SCIP version 5.0.0 [precision: 8 byte] [memory: block] [mode: optimized] [LP solver: NONE] [GitHash: 3bbd232]
Copyright (C) 2002-2017 Konrad-Zuse-Zentrum fuer Informationstechnik Berlin (ZIB)

External codes: 
  Readline EditLine w  GNU library for command line editing (gnu.org/s/readline)
  CppAD 20160000.1     Algorithmic Differentiation of C++ algorithms developed by B. Bell (www.coin-or.org/CppAD)
  ZLIB 1.2.5           General purpose compression library by J. Gailly and M. Adler (zlib.net)
  GMP 6.1.2            GNU Multiple Precision Arithmetic Library developed by T. Granlund (gmplib.org)

user parameter file <scip.set> not found - using default parameters

read problem <../../Split_data/output/breast/9/4_sample_breast.logreg>
============

File name	:	../../Split_data/output/breast/9/4_sample_breast.logreg
Problem name 	:	4_sample_breast
Number of data	:	155
Number of var	:	33
The given data has linear dependence
16 sets of column vector are linearly dependent:
elements are all 0
elements are all 0
elements are all 0
elements are all 0
elements are all 0
elements are all 0

[dim=1] time: 0.003984
[dim=2] time: 0.00731
[dim=3] time: 0.009589
[dim=4] time: 0.011811
[dim=5] time: 0.013889
[dim=6] time: 0.01584
[dim=7] Time of forward = 0.017688sec.
AIC: 137.748
k: 6

[dim=17] time: 0.005304
[dim=16] time: 0.007754
[dim=15] time: 0.010361
[dim=14] time: 0.012708
[dim=13] time: 0.014831
[dim=12] time: 0.016573
[dim=11] time: 0.018652
[dim=10] time: 0.020272
[dim=9] time: 0.021778
[dim=8] time: 0.022994
[dim=7] time: 0.024333
[dim=6] time: 0.025491
[dim=5] Time of backward = 0.026599sec.
AIC: 136.884
k: 6
